c DIMACS CNF format
c Generated from: research_5vars_15clauses_seed999.md
c Enhanced research pipeline - dual analysis ready
c Generated on: 2025-07-15T10:48:57.376
c
p cnf 5 15
-5 1 1 0
4 1 -5 0
-3 3 2 0
-4 -3 1 0
-2 3 3 0
-3 -5 -5 0
-2 3 -2 0
2 -3 -1 0
5 -4 -2 0
-3 -4 2 0
2 1 4 0
-3 -5 -4 0
-3 -2 -1 0
3 -1 3 0
3 -3 -1 0
